unsat
(:eliminated-applications 2
 :eliminated-vars         1
 :max-memory              18.04
 :memory                  18.04
 :nlsat-conflicts         3
 :nlsat-propagations      6
 :nlsat-stages            3
 :num-allocs              21669
 :rlimit-count            4156
 :time                    0.00
 :total-time              0.01)
